32	0

0	1	2
9	1	3
4	2	4	6
5	1	5
6	2	7	8
10	2	7	8
4	2	9	10
5	1	10
4	2	11	12
3	2	11	12
4	2	13	15
7	2	14	15
5	1	14
2	1	16
10	1	16
5	2	17	18
3	2	19	20
3	2	19	20
5	3	21	22	23
10	1	24
5	1	24
5	1	24
5	1	24
8	1	25
1	2	26	27
1	2	28	29
4	1	28
2	2	30	31
9	1	30
6	1	32
8	1	32
0	0
